Route #1: 9 42 48 36 24 27 5 13
Route #2: 10 6 4 47 43 41 3
Route #3: 58 50 51 35 37 17 28
Route #4: 7 16 60 34 61 44 15
Route #5: 12 52 62 39 23 56
Route #6: 54 29 20 25 19 26
Route #7: 45 59 8 49 2 30
Route #8: 11 33 21 32 55 22 53
Route #9: 31 38 46 1 18 57 14 40
cost 1884.2127685546875